<number of tasks>
100

<cycle time>
1000

<order strength>
0.595


<task times>
1 119
2 138
3 79
4 74
5 113
6 215
7 187
8 179
9 259
10 268
11 293
12 61
13 63
14 36
15 108
16 73
17 216
18 223
19 206
20 223
21 204
22 72
23 200
24 113
25 191
26 36
27 72
28 53
29 120
30 156
31 117
32 131
33 59
34 225
35 97
36 32
37 34
38 89
39 129
40 36
41 102
42 24
43 129
44 137
45 129
46 192
47 32
48 102
49 186
50 254
51 106
52 32
53 37
54 40
55 225
56 31
57 223
58 61
59 175
60 106
61 42
62 50
63 215
64 80
65 155
66 82
67 201
68 172
69 184
70 27
71 97
72 75
73 160
74 48
75 140
76 103
77 27
78 169
79 84
80 223
81 42
82 119
83 93
84 307
85 115
86 134
87 121
88 118
89 110
90 100
91 109
92 21
93 47
94 75
95 213
96 101
97 136
98 87
99 178
100 201

<precedence relations>
1,72
2,42
3,60
4,84
5,7
5,14
5,16
6,7
6,8
6,9
6,10
7,42
8,85
9,85
10,11
10,12
10,13
10,14
10,15
10,16
11,72
12,42
13,85
14,17
14,18
14,19
14,20
14,23
14,24
14,25
14,26
14,27
15,17
15,18
15,19
15,21
16,17
16,18
16,20
16,21
17,72
18,72
19,60
20,85
21,22
21,23
21,24
21,25
21,26
21,27
22,42
23,60
24,28
24,29
24,30
24,31
24,32
24,33
25,28
25,29
25,30
25,31
25,32
25,33
26,28
26,29
26,30
26,31
26,32
26,33
27,28
27,29
27,30
27,31
27,32
27,33
28,72
29,42
30,42
31,34
31,35
31,36
32,34
32,35
32,36
33,34
33,35
33,36
34,84
35,37
35,38
35,39
35,40
36,37
36,38
36,39
36,40
37,72
38,42
39,84
40,41
40,42
40,43
40,44
40,45
41,72
42,46
42,47
42,48
42,49
42,50
42,51
42,52
42,53
42,54
43,84
44,85
45,54
46,55
46,56
46,57
46,58
47,55
47,56
47,57
47,58
48,55
48,56
48,57
48,58
49,55
49,56
49,57
49,58
50,55
50,56
50,57
50,58
51,55
51,56
51,57
51,58
52,55
52,56
52,57
52,58
53,55
53,56
53,57
53,58
54,55
54,56
54,57
54,58
55,60
56,84
57,59
57,60
57,61
57,62
57,63
58,59
58,60
58,61
58,62
58,63
59,72
60,64
60,65
60,66
60,67
60,68
60,69
60,70
60,71
61,84
62,64
62,65
62,71
62,74
62,76
62,79
63,65
63,71
63,79
64,72
65,72
66,85
67,73
67,74
67,76
67,78
68,78
69,75
69,76
69,79
70,72
70,75
70,79
71,72
71,73
71,75
71,77
72,80
72,81
72,82
72,83
72,85
72,86
73,84
74,84
75,84
76,85
77,85
78,86
78,98
78,99
79,86
79,99
82,98
83,98
83,99
84,87
84,88
84,89
84,90
84,91
84,92
84,93
85,94
85,95
85,96
85,97
86,100
87,99
89,100
90,99
90,100
93,98
93,99
94,100

<end>
